(set-logic HORN)

(declare-datatypes ((listOfInt 0)) (((conslistOfInt  (headlistOfInt Int) (taillistOfInt listOfInt)) (nillistOfInt ))))

(declare-fun |adt_new1| ( listOfInt listOfInt Bool ) Bool)
(declare-fun |ff| ( ) Bool)
(declare-fun |take| ( Int listOfInt listOfInt ) Bool)

(assert
  (forall ( (A listOfInt) (B Int) (C listOfInt) (D Bool) (v_4 listOfInt) ) 
    (=>
      (and
        (and (not D) (= A (conslistOfInt B C)) (= v_4 nillistOfInt))
      )
      (adt_new1 v_4 A D)
    )
  )
)
(assert
  (forall ( (A listOfInt) (B Int) (C listOfInt) (D Bool) (v_4 listOfInt) ) 
    (=>
      (and
        (and (not D) (= A (conslistOfInt B C)) (= v_4 nillistOfInt))
      )
      (adt_new1 A v_4 D)
    )
  )
)
(assert
  (forall ( (A Bool) (v_1 listOfInt) (v_2 listOfInt) ) 
    (=>
      (and
        (and (= A true) (= v_1 nillistOfInt) (= v_2 nillistOfInt))
      )
      (adt_new1 v_1 v_2 A)
    )
  )
)
(assert
  (forall ( (A listOfInt) (B listOfInt) (C Int) (D listOfInt) (E Int) (F listOfInt) (G Bool) ) 
    (=>
      (and
        (and (= B (conslistOfInt C D))
     (>= (+ E (* (- 1) C)) 1)
     (not G)
     (= A (conslistOfInt E F)))
      )
      (adt_new1 B A G)
    )
  )
)
(assert
  (forall ( (A listOfInt) (B listOfInt) (C Int) (D listOfInt) (E Int) (F listOfInt) (G Bool) ) 
    (=>
      (and
        (and (= B (conslistOfInt C D))
     (<= (+ E (* (- 1) C)) (- 1))
     (not G)
     (= A (conslistOfInt E F)))
      )
      (adt_new1 B A G)
    )
  )
)
(assert
  (forall ( (A listOfInt) (B listOfInt) (C Int) (D listOfInt) (E listOfInt) (F Bool) ) 
    (=>
      (and
        (adt_new1 D E F)
        (and (= A (conslistOfInt C E)) (= B (conslistOfInt C D)))
      )
      (adt_new1 B A F)
    )
  )
)
(assert
  (forall ( (A Int) (v_1 listOfInt) (v_2 listOfInt) ) 
    (=>
      (and
        (and true (= v_1 nillistOfInt) (= v_2 nillistOfInt))
      )
      (take A v_1 v_2)
    )
  )
)
(assert
  (forall ( (A Int) (B listOfInt) (v_2 listOfInt) ) 
    (=>
      (and
        (and (= A 0) (= v_2 nillistOfInt))
      )
      (take A B v_2)
    )
  )
)
(assert
  (forall ( (A listOfInt) (B listOfInt) (C Int) (D Int) (E listOfInt) (F listOfInt) (G Int) ) 
    (=>
      (and
        (take G E F)
        (and (= B (conslistOfInt D E)) (= C (+ 1 G)) (>= G 0) (= A (conslistOfInt D F)))
      )
      (take C B A)
    )
  )
)
(assert
  (forall ( (A listOfInt) (B listOfInt) (C Bool) (D Int) (E Int) (F Int) (G listOfInt) (H listOfInt) (I listOfInt) ) 
    (=>
      (and
        (adt_new1 H B C)
        (take D A H)
        (take E G I)
        (and (= B (conslistOfInt F I))
     (= D (+ 1 E))
     (>= E 0)
     (not C)
     (= A (conslistOfInt F G)))
      )
      ff
    )
  )
)
(assert
  (forall ( (CHC_COMP_UNUSED Bool) ) 
    (=>
      (and
        ff
        true
      )
      false
    )
  )
)

(check-sat)
(exit)
